; benchmark generated from python API
(set-info :status unknown)
(declare-fun syscall_stub_newfstatat_83_64 () (_ BitVec 64))
(declare-fun mem_c0000f45_79_992 () (_ BitVec 992))
(declare-fun mem_fffffffffffffff0_103_128 () (_ BitVec 128))
(declare-fun mem_c0001010_98_32 () (_ BitVec 32))
(declare-fun mem_0_112_128 () (_ BitVec 128))
(declare-fun mem_10_118_128 () (_ BitVec 128))
(declare-fun mem_20_128_128 () (_ BitVec 128))
(declare-fun mem_30_141_128 () (_ BitVec 128))
(declare-fun mem_40_168_2560 () (_ BitVec 2560))
(assert
 (let ((?x47 ((_ extract 31 0) syscall_stub_newfstatat_83_64)))
 (let (($x52 (bvule ?x47 (_ bv4294963200 32))))
 (not $x52))))
(assert
 (let ((?x2189 ((_ extract 900 900) mem_c0000f45_79_992)))
 (= (_ bv0 1) ?x2189)))
(assert
 (let ((?x2374 ((_ extract 839 832) mem_c0000f45_79_992)))
 (let ((?x11156 (concat (_ bv72057594037927935 56) ?x2374)))
 (let ((?x11157 (bvmul (_ bv18446744073709551615 64) ?x11156)))
 (let ((?x2427 ((_ extract 775 768) mem_c0000f45_79_992)))
 (let ((?x2419 ((_ extract 767 760) mem_c0000f45_79_992)))
 (let ((?x2429 ((_ extract 759 752) mem_c0000f45_79_992)))
 (let ((?x2417 ((_ extract 751 744) mem_c0000f45_79_992)))
 (let ((?x2410 ((_ extract 743 736) mem_c0000f45_79_992)))
 (let ((?x2411 ((_ extract 735 728) mem_c0000f45_79_992)))
 (let ((?x4124 (concat (concat ((_ extract 719 712) mem_c0000f45_79_992) ((_ extract 727 720) mem_c0000f45_79_992)) ?x2411)))
 (let ((?x3823 (concat (concat (concat (concat (concat ?x4124 ?x2410) ?x2417) ?x2429) ?x2419) ?x2427)))
 (let ((?x17565 (bvadd ?x3823 ?x11157)))
 (let ((?x17657 ((_ extract 63 63) ?x17565)))
 (let (($x17606 (= (_ bv1 1) ?x17657)))
 (not $x17606))))))))))))))))
(assert
 (let ((?x4996 ((_ extract 837 832) mem_c0000f45_79_992)))
 (let (($x3467 (bvule ?x4996 (_ bv48 6))))
 (not $x3467))))
(assert
 (let ((?x6435 ((_ extract 839 836) mem_c0000f45_79_992)))
 (= (_ bv15 4) ?x6435)))
(assert
 (let ((?x6423 ((_ extract 835 832) mem_c0000f45_79_992)))
 (let ((?x6432 (concat (_ bv0 60) ?x6423)))
 (let ((?x792 ((_ extract 7 0) mem_fffffffffffffff0_103_128)))
 (let (($x850 (= (_ bv10 8) ?x792)))
 (let ((?x433 (ite $x850 (_ bv1 1) (_ bv0 1))))
 (let ((?x1074 ((_ extract 15 8) mem_fffffffffffffff0_103_128)))
 (let (($x530 (= (_ bv10 8) ?x1074)))
 (let ((?x355 (ite $x530 (_ bv1 1) (_ bv0 1))))
 (let ((?x5156 ((_ extract 23 16) mem_fffffffffffffff0_103_128)))
 (let (($x3840 (= (_ bv10 8) ?x5156)))
 (let ((?x3837 (ite $x3840 (_ bv1 1) (_ bv0 1))))
 (let ((?x4006 ((_ extract 31 24) mem_fffffffffffffff0_103_128)))
 (let (($x828 (= (_ bv10 8) ?x4006)))
 (let ((?x495 (ite $x828 (_ bv1 1) (_ bv0 1))))
 (let ((?x5159 ((_ extract 39 32) mem_fffffffffffffff0_103_128)))
 (let (($x413 (= (_ bv10 8) ?x5159)))
 (let ((?x3818 (ite $x413 (_ bv1 1) (_ bv0 1))))
 (let ((?x398 ((_ extract 47 40) mem_fffffffffffffff0_103_128)))
 (let (($x5534 (= (_ bv10 8) ?x398)))
 (let ((?x668 (ite $x5534 (_ bv1 1) (_ bv0 1))))
 (let ((?x5161 ((_ extract 55 48) mem_fffffffffffffff0_103_128)))
 (let (($x4228 (= (_ bv10 8) ?x5161)))
 (let ((?x403 (ite $x4228 (_ bv1 1) (_ bv0 1))))
 (let ((?x5540 ((_ extract 63 56) mem_fffffffffffffff0_103_128)))
 (let (($x485 (= (_ bv10 8) ?x5540)))
 (let ((?x367 (ite $x485 (_ bv1 1) (_ bv0 1))))
 (let ((?x3798 ((_ extract 71 64) mem_fffffffffffffff0_103_128)))
 (let (($x482 (= (_ bv10 8) ?x3798)))
 (let ((?x3791 (ite $x482 (_ bv1 1) (_ bv0 1))))
 (let ((?x3962 ((_ extract 79 72) mem_fffffffffffffff0_103_128)))
 (let (($x803 (= (_ bv10 8) ?x3962)))
 (let ((?x3815 (ite $x803 (_ bv1 1) (_ bv0 1))))
 (let ((?x3811 ((_ extract 87 80) mem_fffffffffffffff0_103_128)))
 (let (($x4229 (= (_ bv10 8) ?x3811)))
 (let ((?x957 (ite $x4229 (_ bv1 1) (_ bv0 1))))
 (let ((?x993 ((_ extract 95 88) mem_fffffffffffffff0_103_128)))
 (let (($x5151 (= (_ bv10 8) ?x993)))
 (let ((?x1756 (ite $x5151 (_ bv1 1) (_ bv0 1))))
 (let ((?x5171 ((_ extract 103 96) mem_fffffffffffffff0_103_128)))
 (let (($x4936 (= (_ bv10 8) ?x5171)))
 (let ((?x2120 (ite $x4936 (_ bv1 1) (_ bv0 1))))
 (let ((?x3950 ((_ extract 111 104) mem_fffffffffffffff0_103_128)))
 (let (($x2109 (= (_ bv10 8) ?x3950)))
 (let ((?x633 (ite $x2109 (_ bv1 1) (_ bv0 1))))
 (let ((?x2088 ((_ extract 119 112) mem_fffffffffffffff0_103_128)))
 (let (($x5533 (= (_ bv10 8) ?x2088)))
 (let ((?x3829 (ite $x5533 (_ bv1 1) (_ bv0 1))))
 (let ((?x615 ((_ extract 127 120) mem_fffffffffffffff0_103_128)))
 (let (($x5162 (= (_ bv10 8) ?x615)))
 (let ((?x4915 (ite $x5162 (_ bv1 1) (_ bv0 1))))
 (let ((?x11911 (concat (concat (concat (concat (concat (_ bv0 48) ?x4915) ?x3829) ?x633) ?x2120) ?x1756)))
 (let ((?x12631 (concat (concat (concat (concat (concat ?x11911 ?x957) ?x3815) ?x3791) ?x367) ?x403)))
 (let ((?x13069 (concat (concat (concat (concat (concat ?x12631 ?x668) ?x3818) ?x495) ?x3837) ?x355)))
 (let ((?x12551 (concat ?x13069 ?x433)))
 (let ((?x12258 (bvashr ?x12551 ?x6432)))
 (let ((?x12299 ((_ extract 31 0) ?x12258)))
 (= (_ bv0 32) ?x12299))))))))))))))))))))))))))))))))))))))))))))))))))))))))))
(assert
 (let ((?x6423 ((_ extract 835 832) mem_c0000f45_79_992)))
 (let ((?x6432 (concat (_ bv0 60) ?x6423)))
 (let ((?x10865 (bvmul (_ bv18446744073709551615 64) ?x6432)))
 (let ((?x10876 (bvadd (_ bv16 64) ?x10865)))
 (let ((?x2374 ((_ extract 839 832) mem_c0000f45_79_992)))
 (let ((?x11156 (concat (_ bv72057594037927935 56) ?x2374)))
 (let ((?x11157 (bvmul (_ bv18446744073709551615 64) ?x11156)))
 (let ((?x2427 ((_ extract 775 768) mem_c0000f45_79_992)))
 (let ((?x2419 ((_ extract 767 760) mem_c0000f45_79_992)))
 (let ((?x2429 ((_ extract 759 752) mem_c0000f45_79_992)))
 (let ((?x2417 ((_ extract 751 744) mem_c0000f45_79_992)))
 (let ((?x2410 ((_ extract 743 736) mem_c0000f45_79_992)))
 (let ((?x2411 ((_ extract 735 728) mem_c0000f45_79_992)))
 (let ((?x4124 (concat (concat ((_ extract 719 712) mem_c0000f45_79_992) ((_ extract 727 720) mem_c0000f45_79_992)) ?x2411)))
 (let ((?x3823 (concat (concat (concat (concat (concat ?x4124 ?x2410) ?x2417) ?x2429) ?x2419) ?x2427)))
 (let ((?x17565 (bvadd ?x3823 ?x11157)))
 (let ((?x3615 ((_ extract 824 824) mem_c0000f45_79_992)))
 (let ((?x3589 (concat ?x3615 ?x2374)))
 (let ((?x4638 (bvmul (_ bv511 9) ?x3589)))
 (let ((?x4203 ((_ extract 760 760) mem_c0000f45_79_992)))
 (let ((?x3607 (concat ?x4203 ?x2427)))
 (let ((?x3785 (bvadd ?x3607 ?x4638)))
 (let (($x4511 (bvule ?x3785 (_ bv399 9))))
 (let ((?x17607 ((_ extract 63 9) ?x17565)))
 (let (($x17611 (= (_ bv0 55) ?x17607)))
 (let (($x17584 (and $x17611 $x4511)))
 (let ((?x17711 (ite $x17584 ?x17565 (_ bv399 64))))
 (let (($x17615 (bvule ?x17711 ?x10876)))
 (not $x17615))))))))))))))))))))))))))))))
(assert
 (let ((?x2364 ((_ extract 831 824) mem_c0000f45_79_992)))
 (= (_ bv255 8) ?x2364)))
(assert
 (let ((?x2349 ((_ extract 823 816) mem_c0000f45_79_992)))
 (= (_ bv255 8) ?x2349)))
(assert
 (let ((?x2357 ((_ extract 815 808) mem_c0000f45_79_992)))
 (= (_ bv255 8) ?x2357)))
(assert
 (let ((?x2362 ((_ extract 807 800) mem_c0000f45_79_992)))
 (= (_ bv255 8) ?x2362)))
(assert
 (let ((?x2363 ((_ extract 799 792) mem_c0000f45_79_992)))
 (= (_ bv255 8) ?x2363)))
(assert
 (let ((?x2346 ((_ extract 791 784) mem_c0000f45_79_992)))
 (= (_ bv255 8) ?x2346)))
(assert
 (let ((?x2345 ((_ extract 783 776) mem_c0000f45_79_992)))
 (= (_ bv255 8) ?x2345)))
(assert
 (let ((?x6423 ((_ extract 835 832) mem_c0000f45_79_992)))
 (let ((?x10887 (concat (_ bv1152921504606846975 60) ?x6423)))
 (let ((?x2374 ((_ extract 839 832) mem_c0000f45_79_992)))
 (let ((?x11156 (concat (_ bv72057594037927935 56) ?x2374)))
 (let ((?x11157 (bvmul (_ bv18446744073709551615 64) ?x11156)))
 (let ((?x2427 ((_ extract 775 768) mem_c0000f45_79_992)))
 (let ((?x2419 ((_ extract 767 760) mem_c0000f45_79_992)))
 (let ((?x2429 ((_ extract 759 752) mem_c0000f45_79_992)))
 (let ((?x2417 ((_ extract 751 744) mem_c0000f45_79_992)))
 (let ((?x2410 ((_ extract 743 736) mem_c0000f45_79_992)))
 (let ((?x2411 ((_ extract 735 728) mem_c0000f45_79_992)))
 (let ((?x4124 (concat (concat ((_ extract 719 712) mem_c0000f45_79_992) ((_ extract 727 720) mem_c0000f45_79_992)) ?x2411)))
 (let ((?x3823 (concat (concat (concat (concat (concat ?x4124 ?x2410) ?x2417) ?x2429) ?x2419) ?x2427)))
 (let ((?x17565 (bvadd ?x3823 ?x11157)))
 (let ((?x3615 ((_ extract 824 824) mem_c0000f45_79_992)))
 (let ((?x3589 (concat ?x3615 ?x2374)))
 (let ((?x4638 (bvmul (_ bv511 9) ?x3589)))
 (let ((?x4203 ((_ extract 760 760) mem_c0000f45_79_992)))
 (let ((?x3607 (concat ?x4203 ?x2427)))
 (let ((?x3785 (bvadd ?x3607 ?x4638)))
 (let (($x4511 (bvule ?x3785 (_ bv399 9))))
 (let ((?x17607 ((_ extract 63 9) ?x17565)))
 (let (($x17611 (= (_ bv0 55) ?x17607)))
 (let (($x17584 (and $x17611 $x4511)))
 (let ((?x17711 (ite $x17584 ?x17565 (_ bv399 64))))
 (let ((?x15268 (bvadd (bvadd (_ bv18446744073709551552 64) ?x17711) ?x10887)))
 (let ((?x54920 ((_ extract 63 7) ?x15268)))
 (= (_ bv0 57) ?x54920)))))))))))))))))))))))))))))
(assert
 (let ((?x6423 ((_ extract 835 832) mem_c0000f45_79_992)))
 (let ((?x16888 (concat (_ bv268435455 28) ?x6423)))
 (let ((?x2374 ((_ extract 839 832) mem_c0000f45_79_992)))
 (let ((?x13019 (concat (_ bv16777215 24) ?x2374)))
 (let ((?x12062 (bvmul (_ bv4294967295 32) ?x13019)))
 (let ((?x2427 ((_ extract 775 768) mem_c0000f45_79_992)))
 (let ((?x2419 ((_ extract 767 760) mem_c0000f45_79_992)))
 (let ((?x21977 (concat (concat ((_ extract 751 744) mem_c0000f45_79_992) ((_ extract 759 752) mem_c0000f45_79_992)) ?x2419)))
 (let ((?x22501 (concat ?x21977 ?x2427)))
 (let ((?x15826 (bvadd ?x22501 ?x12062)))
 (let ((?x3615 ((_ extract 824 824) mem_c0000f45_79_992)))
 (let ((?x3589 (concat ?x3615 ?x2374)))
 (let ((?x4638 (bvmul (_ bv511 9) ?x3589)))
 (let ((?x4203 ((_ extract 760 760) mem_c0000f45_79_992)))
 (let ((?x3607 (concat ?x4203 ?x2427)))
 (let ((?x3785 (bvadd ?x3607 ?x4638)))
 (let (($x4511 (bvule ?x3785 (_ bv399 9))))
 (let ((?x11156 (concat (_ bv72057594037927935 56) ?x2374)))
 (let ((?x11157 (bvmul (_ bv18446744073709551615 64) ?x11156)))
 (let ((?x2429 ((_ extract 759 752) mem_c0000f45_79_992)))
 (let ((?x2417 ((_ extract 751 744) mem_c0000f45_79_992)))
 (let ((?x2410 ((_ extract 743 736) mem_c0000f45_79_992)))
 (let ((?x2411 ((_ extract 735 728) mem_c0000f45_79_992)))
 (let ((?x4124 (concat (concat ((_ extract 719 712) mem_c0000f45_79_992) ((_ extract 727 720) mem_c0000f45_79_992)) ?x2411)))
 (let ((?x3823 (concat (concat (concat (concat (concat ?x4124 ?x2410) ?x2417) ?x2429) ?x2419) ?x2427)))
 (let ((?x17565 (bvadd ?x3823 ?x11157)))
 (let ((?x17607 ((_ extract 63 9) ?x17565)))
 (let (($x17611 (= (_ bv0 55) ?x17607)))
 (let (($x17584 (and $x17611 $x4511)))
 (let ((?x15819 (ite $x17584 ?x15826 (_ bv399 32))))
 (let ((?x86842 (bvadd (bvadd (_ bv4294967200 32) ?x15819) ?x16888)))
 (let ((?x85159 ((_ extract 31 31) ?x86842)))
 (let ((?x10887 (concat (_ bv1152921504606846975 60) ?x6423)))
 (let ((?x85180 (bvadd (bvadd (_ bv18446744073709551488 64) (ite $x17584 ?x17565 (_ bv399 64))) ?x10887)))
 (let ((?x86143 ((_ extract 31 31) ?x85180)))
 (let (($x86174 (= ?x86143 ?x85159)))
 (let (($x85821 (= (_ bv1 1) ?x86143)))
 (let (($x87652 (or $x85821 $x86174)))
 (let ((?x86301 (ite $x87652 (_ bv1 1) (_ bv0 1))))
 (let (($x85684 (= ?x85159 ?x86301)))
 (not $x85684))))))))))))))))))))))))))))))))))))))))))
(assert
 (let ((?x6423 ((_ extract 835 832) mem_c0000f45_79_992)))
 (let ((?x14178 (concat (_ bv7 3) ?x6423)))
 (let ((?x14167 ((_ extract 838 832) mem_c0000f45_79_992)))
 (let ((?x14394 (bvmul (_ bv127 7) ?x14167)))
 (let ((?x13987 ((_ extract 774 768) mem_c0000f45_79_992)))
 (let ((?x14007 (bvadd ?x13987 ?x14394)))
 (let ((?x2374 ((_ extract 839 832) mem_c0000f45_79_992)))
 (let ((?x3615 ((_ extract 824 824) mem_c0000f45_79_992)))
 (let ((?x3589 (concat ?x3615 ?x2374)))
 (let ((?x4638 (bvmul (_ bv511 9) ?x3589)))
 (let ((?x2427 ((_ extract 775 768) mem_c0000f45_79_992)))
 (let ((?x4203 ((_ extract 760 760) mem_c0000f45_79_992)))
 (let ((?x3607 (concat ?x4203 ?x2427)))
 (let ((?x3785 (bvadd ?x3607 ?x4638)))
 (let (($x4511 (bvule ?x3785 (_ bv399 9))))
 (let ((?x11156 (concat (_ bv72057594037927935 56) ?x2374)))
 (let ((?x11157 (bvmul (_ bv18446744073709551615 64) ?x11156)))
 (let ((?x2419 ((_ extract 767 760) mem_c0000f45_79_992)))
 (let ((?x2429 ((_ extract 759 752) mem_c0000f45_79_992)))
 (let ((?x2417 ((_ extract 751 744) mem_c0000f45_79_992)))
 (let ((?x2410 ((_ extract 743 736) mem_c0000f45_79_992)))
 (let ((?x2411 ((_ extract 735 728) mem_c0000f45_79_992)))
 (let ((?x4124 (concat (concat ((_ extract 719 712) mem_c0000f45_79_992) ((_ extract 727 720) mem_c0000f45_79_992)) ?x2411)))
 (let ((?x3823 (concat (concat (concat (concat (concat ?x4124 ?x2410) ?x2417) ?x2429) ?x2419) ?x2427)))
 (let ((?x17565 (bvadd ?x3823 ?x11157)))
 (let ((?x17607 ((_ extract 63 9) ?x17565)))
 (let (($x17611 (= (_ bv0 55) ?x17607)))
 (let (($x17584 (and $x17611 $x4511)))
 (let ((?x17612 (ite $x17584 ?x14007 (_ bv15 7))))
 (let ((?x59506 (bvadd (bvadd (_ bv64 7) ?x17612) ?x14178)))
 (bvule ?x59506 (_ bv64 7)))))))))))))))))))))))))))))))))
(assert
 (let ((?x6423 ((_ extract 835 832) mem_c0000f45_79_992)))
 (let ((?x16888 (concat (_ bv268435455 28) ?x6423)))
 (let ((?x15474 (bvmul (_ bv4294967295 32) ?x16888)))
 (let ((?x60851 (bvadd (_ bv96 32) ?x15474)))
 (let ((?x2374 ((_ extract 839 832) mem_c0000f45_79_992)))
 (let ((?x13019 (concat (_ bv16777215 24) ?x2374)))
 (let ((?x12062 (bvmul (_ bv4294967295 32) ?x13019)))
 (let ((?x2427 ((_ extract 775 768) mem_c0000f45_79_992)))
 (let ((?x2419 ((_ extract 767 760) mem_c0000f45_79_992)))
 (let ((?x21977 (concat (concat ((_ extract 751 744) mem_c0000f45_79_992) ((_ extract 759 752) mem_c0000f45_79_992)) ?x2419)))
 (let ((?x22501 (concat ?x21977 ?x2427)))
 (let ((?x15826 (bvadd ?x22501 ?x12062)))
 (let ((?x3615 ((_ extract 824 824) mem_c0000f45_79_992)))
 (let ((?x3589 (concat ?x3615 ?x2374)))
 (let ((?x4638 (bvmul (_ bv511 9) ?x3589)))
 (let ((?x4203 ((_ extract 760 760) mem_c0000f45_79_992)))
 (let ((?x3607 (concat ?x4203 ?x2427)))
 (let ((?x3785 (bvadd ?x3607 ?x4638)))
 (let (($x4511 (bvule ?x3785 (_ bv399 9))))
 (let ((?x11156 (concat (_ bv72057594037927935 56) ?x2374)))
 (let ((?x11157 (bvmul (_ bv18446744073709551615 64) ?x11156)))
 (let ((?x2429 ((_ extract 759 752) mem_c0000f45_79_992)))
 (let ((?x2417 ((_ extract 751 744) mem_c0000f45_79_992)))
 (let ((?x2410 ((_ extract 743 736) mem_c0000f45_79_992)))
 (let ((?x2411 ((_ extract 735 728) mem_c0000f45_79_992)))
 (let ((?x4124 (concat (concat ((_ extract 719 712) mem_c0000f45_79_992) ((_ extract 727 720) mem_c0000f45_79_992)) ?x2411)))
 (let ((?x3823 (concat (concat (concat (concat (concat ?x4124 ?x2410) ?x2417) ?x2429) ?x2419) ?x2427)))
 (let ((?x17565 (bvadd ?x3823 ?x11157)))
 (let ((?x17607 ((_ extract 63 9) ?x17565)))
 (let (($x17611 (= (_ bv0 55) ?x17607)))
 (let (($x17584 (and $x17611 $x4511)))
 (let ((?x15819 (ite $x17584 ?x15826 (_ bv399 32))))
 (let (($x81038 (= ?x15819 ?x60851)))
 (not $x81038)))))))))))))))))))))))))))))))))))
(assert
 (let ((?x2400 ((_ extract 719 712) mem_c0000f45_79_992)))
 (let (($x17560 (= (_ bv255 8) ?x2400)))
 (let (($x17562 (not $x17560)))
 (let ((?x2374 ((_ extract 839 832) mem_c0000f45_79_992)))
 (let ((?x2427 ((_ extract 775 768) mem_c0000f45_79_992)))
 (let (($x1152 (= ?x2427 ?x2374)))
 (let (($x4139 (not $x1152)))
 (let ((?x2411 ((_ extract 735 728) mem_c0000f45_79_992)))
 (let (($x17604 (= (_ bv255 8) ?x2411)))
 (let (($x17721 (not $x17604)))
 (let ((?x2401 ((_ extract 727 720) mem_c0000f45_79_992)))
 (let (($x17731 (= (_ bv255 8) ?x2401)))
 (let (($x17664 (not $x17731)))
 (let ((?x2417 ((_ extract 751 744) mem_c0000f45_79_992)))
 (let (($x17650 (= (_ bv255 8) ?x2417)))
 (let (($x17555 (not $x17650)))
 (let ((?x2410 ((_ extract 743 736) mem_c0000f45_79_992)))
 (let (($x17595 (= (_ bv255 8) ?x2410)))
 (let (($x17616 (not $x17595)))
 (let ((?x2419 ((_ extract 767 760) mem_c0000f45_79_992)))
 (let (($x17574 (= (_ bv255 8) ?x2419)))
 (let (($x17598 (not $x17574)))
 (let ((?x2429 ((_ extract 759 752) mem_c0000f45_79_992)))
 (let (($x17591 (= (_ bv255 8) ?x2429)))
 (let (($x17582 (not $x17591)))
 (or $x17582 $x17598 $x17616 $x17555 $x17664 $x17721 $x4139 $x17562)))))))))))))))))))))))))))
(assert
 (let ((?x6423 ((_ extract 835 832) mem_c0000f45_79_992)))
 (let ((?x14178 (concat (_ bv7 3) ?x6423)))
 (let ((?x14167 ((_ extract 838 832) mem_c0000f45_79_992)))
 (let ((?x14394 (bvmul (_ bv127 7) ?x14167)))
 (let ((?x13987 ((_ extract 774 768) mem_c0000f45_79_992)))
 (let ((?x14007 (bvadd ?x13987 ?x14394)))
 (let ((?x2374 ((_ extract 839 832) mem_c0000f45_79_992)))
 (let ((?x3615 ((_ extract 824 824) mem_c0000f45_79_992)))
 (let ((?x3589 (concat ?x3615 ?x2374)))
 (let ((?x4638 (bvmul (_ bv511 9) ?x3589)))
 (let ((?x2427 ((_ extract 775 768) mem_c0000f45_79_992)))
 (let ((?x4203 ((_ extract 760 760) mem_c0000f45_79_992)))
 (let ((?x3607 (concat ?x4203 ?x2427)))
 (let ((?x3785 (bvadd ?x3607 ?x4638)))
 (let (($x4511 (bvule ?x3785 (_ bv399 9))))
 (let ((?x11156 (concat (_ bv72057594037927935 56) ?x2374)))
 (let ((?x11157 (bvmul (_ bv18446744073709551615 64) ?x11156)))
 (let ((?x2419 ((_ extract 767 760) mem_c0000f45_79_992)))
 (let ((?x2429 ((_ extract 759 752) mem_c0000f45_79_992)))
 (let ((?x2417 ((_ extract 751 744) mem_c0000f45_79_992)))
 (let ((?x2410 ((_ extract 743 736) mem_c0000f45_79_992)))
 (let ((?x2411 ((_ extract 735 728) mem_c0000f45_79_992)))
 (let ((?x4124 (concat (concat ((_ extract 719 712) mem_c0000f45_79_992) ((_ extract 727 720) mem_c0000f45_79_992)) ?x2411)))
 (let ((?x3823 (concat (concat (concat (concat (concat ?x4124 ?x2410) ?x2417) ?x2429) ?x2419) ?x2427)))
 (let ((?x17565 (bvadd ?x3823 ?x11157)))
 (let ((?x17607 ((_ extract 63 9) ?x17565)))
 (let (($x17611 (= (_ bv0 55) ?x17607)))
 (let (($x17584 (and $x17611 $x4511)))
 (let ((?x17612 (ite $x17584 ?x14007 (_ bv15 7))))
 (let ((?x17567 (bvadd ?x17612 ?x14178)))
 (let (($x17658 (bvule ?x17567 (_ bv64 7))))
 (let (($x17618 (not $x17658)))
 (let ((?x10887 (concat (_ bv1152921504606846975 60) ?x6423)))
 (let ((?x17711 (ite $x17584 ?x17565 (_ bv399 64))))
 (let ((?x17597 (bvadd ?x17711 ?x10887)))
 (let ((?x17570 ((_ extract 63 7) ?x17597)))
 (let (($x17733 (= (_ bv0 57) ?x17570)))
 (let (($x17662 (not $x17733)))
 (or $x17662 $x17618))))))))))))))))))))))))))))))))))))))))
(assert
 (= (_ bv0 32) mem_c0001010_98_32))
(assert
 (let ((?x21535 ((_ extract 15 8) mem_0_112_128)))
 (let (($x21536 (= (_ bv10 8) ?x21535)))
 (not $x21536))))
(assert
 (let ((?x21541 ((_ extract 7 0) mem_0_112_128)))
 (let (($x21544 (= (_ bv10 8) ?x21541)))
 (not $x21544))))
(assert
 (let ((?x21527 ((_ extract 23 16) mem_0_112_128)))
 (let (($x21530 (= (_ bv10 8) ?x21527)))
 (not $x21530))))
(assert
 (let ((?x21521 ((_ extract 31 24) mem_0_112_128)))
 (let (($x21523 (= (_ bv10 8) ?x21521)))
 (not $x21523))))
(assert
 (let ((?x21514 ((_ extract 39 32) mem_0_112_128)))
 (let (($x21517 (= (_ bv10 8) ?x21514)))
 (not $x21517))))
(assert
 (let ((?x21508 ((_ extract 47 40) mem_0_112_128)))
 (let (($x21509 (= (_ bv10 8) ?x21508)))
 (not $x21509))))
(assert
 (let ((?x21500 ((_ extract 55 48) mem_0_112_128)))
 (let (($x21503 (= (_ bv10 8) ?x21500)))
 (not $x21503))))
(assert
 (let ((?x21494 ((_ extract 63 56) mem_0_112_128)))
 (let (($x21496 (= (_ bv10 8) ?x21494)))
 (not $x21496))))
(assert
 (let ((?x18815 ((_ extract 71 64) mem_0_112_128)))
 (let (($x21491 (= (_ bv10 8) ?x18815)))
 (not $x21491))))
(assert
 (let ((?x20121 ((_ extract 79 72) mem_0_112_128)))
 (let (($x18655 (= (_ bv10 8) ?x20121)))
 (not $x18655))))
(assert
 (let ((?x19278 ((_ extract 87 80) mem_0_112_128)))
 (let (($x20190 (= (_ bv10 8) ?x19278)))
 (not $x20190))))
(assert
 (let ((?x20159 ((_ extract 95 88) mem_0_112_128)))
 (let (($x20340 (= (_ bv10 8) ?x20159)))
 (not $x20340))))
(assert
 (let ((?x21485 ((_ extract 103 96) mem_0_112_128)))
 (let (($x18768 (= (_ bv10 8) ?x21485)))
 (not $x18768))))
(assert
 (let ((?x21626 ((_ extract 111 104) mem_0_112_128)))
 (let (($x19281 (= (_ bv10 8) ?x21626)))
 (not $x19281))))
(assert
 (let ((?x20391 ((_ extract 119 112) mem_0_112_128)))
 (let (($x20185 (= (_ bv10 8) ?x20391)))
 (not $x20185))))
(assert
 (let ((?x20425 ((_ extract 127 120) mem_0_112_128)))
 (let (($x21484 (= (_ bv10 8) ?x20425)))
 (not $x21484))))
(assert
 (let ((?x15331 ((_ extract 15 8) mem_10_118_128)))
 (let (($x23703 (= (_ bv10 8) ?x15331)))
 (not $x23703))))
(assert
 (let ((?x24593 ((_ extract 7 0) mem_10_118_128)))
 (let (($x26243 (= (_ bv10 8) ?x24593)))
 (not $x26243))))
(assert
 (let ((?x24164 ((_ extract 23 16) mem_10_118_128)))
 (let (($x23212 (= (_ bv10 8) ?x24164)))
 (not $x23212))))
(assert
 (let ((?x26242 ((_ extract 31 24) mem_10_118_128)))
 (let (($x25384 (= (_ bv10 8) ?x26242)))
 (not $x25384))))
(assert
 (let ((?x25385 ((_ extract 39 32) mem_10_118_128)))
 (let (($x23814 (= (_ bv10 8) ?x25385)))
 (not $x23814))))
(assert
 (let ((?x25652 ((_ extract 47 40) mem_10_118_128)))
 (let (($x23425 (= (_ bv10 8) ?x25652)))
 (not $x23425))))
(assert
 (let ((?x25257 ((_ extract 55 48) mem_10_118_128)))
 (let (($x25103 (= (_ bv10 8) ?x25257)))
 (not $x25103))))
(assert
 (let ((?x26219 ((_ extract 63 56) mem_10_118_128)))
 (let (($x15671 (= (_ bv10 8) ?x26219)))
 (not $x15671))))
(assert
 (let ((?x24267 ((_ extract 71 64) mem_10_118_128)))
 (let (($x12568 (= (_ bv10 8) ?x24267)))
 (not $x12568))))
(assert
 (let ((?x14775 ((_ extract 79 72) mem_10_118_128)))
 (let (($x14752 (= (_ bv10 8) ?x14775)))
 (not $x14752))))
(assert
 (let ((?x23880 ((_ extract 87 80) mem_10_118_128)))
 (let (($x24632 (= (_ bv10 8) ?x23880)))
 (not $x24632))))
(assert
 (let ((?x23572 ((_ extract 95 88) mem_10_118_128)))
 (let (($x24180 (= (_ bv10 8) ?x23572)))
 (not $x24180))))
(assert
 (let ((?x25228 ((_ extract 103 96) mem_10_118_128)))
 (let (($x25100 (= (_ bv10 8) ?x25228)))
 (not $x25100))))
(assert
 (let ((?x25089 ((_ extract 111 104) mem_10_118_128)))
 (let (($x24729 (= (_ bv10 8) ?x25089)))
 (not $x24729))))
(assert
 (let ((?x24392 ((_ extract 119 112) mem_10_118_128)))
 (let (($x26228 (= (_ bv10 8) ?x24392)))
 (not $x26228))))
(assert
 (let ((?x14710 ((_ extract 127 120) mem_10_118_128)))
 (let (($x16142 (= (_ bv10 8) ?x14710)))
 (not $x16142))))
(assert
 (let ((?x31056 ((_ extract 15 8) mem_20_128_128)))
 (let (($x31075 (= (_ bv10 8) ?x31056)))
 (not $x31075))))
(assert
 (let ((?x30566 ((_ extract 7 0) mem_20_128_128)))
 (let (($x31636 (= (_ bv10 8) ?x30566)))
 (not $x31636))))
(assert
 (let ((?x31573 ((_ extract 23 16) mem_20_128_128)))
 (let (($x31583 (= (_ bv10 8) ?x31573)))
 (not $x31583))))
(assert
 (let ((?x30357 ((_ extract 31 24) mem_20_128_128)))
 (let (($x29722 (= (_ bv10 8) ?x30357)))
 (not $x29722))))
(assert
 (let ((?x27846 ((_ extract 39 32) mem_20_128_128)))
 (let (($x27945 (= (_ bv10 8) ?x27846)))
 (not $x27945))))
(assert
 (let ((?x30298 ((_ extract 47 40) mem_20_128_128)))
 (let (($x29955 (= (_ bv10 8) ?x30298)))
 (not $x29955))))
(assert
 (let ((?x28773 ((_ extract 55 48) mem_20_128_128)))
 (let (($x26668 (= (_ bv10 8) ?x28773)))
 (not $x26668))))
(assert
 (let ((?x30237 ((_ extract 63 56) mem_20_128_128)))
 (let (($x28146 (= (_ bv10 8) ?x30237)))
 (not $x28146))))
(assert
 (let ((?x30182 ((_ extract 71 64) mem_20_128_128)))
 (let (($x31634 (= (_ bv10 8) ?x30182)))
 (not $x31634))))
(assert
 (let ((?x30620 ((_ extract 79 72) mem_20_128_128)))
 (let (($x30219 (= (_ bv10 8) ?x30620)))
 (not $x30219))))
(assert
 (let ((?x30191 ((_ extract 87 80) mem_20_128_128)))
 (let (($x28227 (= (_ bv10 8) ?x30191)))
 (not $x28227))))
(assert
 (let ((?x29550 ((_ extract 95 88) mem_20_128_128)))
 (let (($x29576 (= (_ bv10 8) ?x29550)))
 (not $x29576))))
(assert
 (let ((?x27467 ((_ extract 103 96) mem_20_128_128)))
 (let (($x27580 (= (_ bv10 8) ?x27467)))
 (not $x27580))))
(assert
 (let ((?x30809 ((_ extract 111 104) mem_20_128_128)))
 (let (($x30839 (= (_ bv10 8) ?x30809)))
 (not $x30839))))
(assert
 (let ((?x30031 ((_ extract 119 112) mem_20_128_128)))
 (let (($x30079 (= (_ bv10 8) ?x30031)))
 (not $x30079))))
(assert
 (let ((?x30592 ((_ extract 127 120) mem_20_128_128)))
 (let (($x30240 (= (_ bv10 8) ?x30592)))
 (not $x30240))))
(assert
 (let ((?x41407 ((_ extract 15 8) mem_30_141_128)))
 (let (($x41062 (= (_ bv10 8) ?x41407)))
 (not $x41062))))
(assert
 (let ((?x41486 ((_ extract 7 0) mem_30_141_128)))
 (let (($x41001 (= (_ bv10 8) ?x41486)))
 (not $x41001))))
(assert
 (let ((?x41464 ((_ extract 23 16) mem_30_141_128)))
 (let (($x41355 (= (_ bv10 8) ?x41464)))
 (not $x41355))))
(assert
 (let ((?x41389 ((_ extract 31 24) mem_30_141_128)))
 (let (($x41740 (= (_ bv10 8) ?x41389)))
 (not $x41740))))
(assert
 (let ((?x40202 ((_ extract 39 32) mem_30_141_128)))
 (let (($x41837 (= (_ bv10 8) ?x40202)))
 (not $x41837))))
(assert
 (let ((?x39665 ((_ extract 47 40) mem_30_141_128)))
 (let (($x39664 (= (_ bv10 8) ?x39665)))
 (not $x39664))))
(assert
 (let ((?x39675 ((_ extract 55 48) mem_30_141_128)))
 (let (($x39673 (= (_ bv10 8) ?x39675)))
 (not $x39673))))
(assert
 (let ((?x39677 ((_ extract 63 56) mem_30_141_128)))
 (let (($x39676 (= (_ bv10 8) ?x39677)))
 (not $x39676))))
(assert
 (let ((?x39698 ((_ extract 71 64) mem_30_141_128)))
 (let (($x39685 (= (_ bv10 8) ?x39698)))
 (not $x39685))))
(assert
 (let ((?x40079 ((_ extract 79 72) mem_30_141_128)))
 (let (($x40083 (= (_ bv10 8) ?x40079)))
 (not $x40083))))
(assert
 (let ((?x40061 ((_ extract 87 80) mem_30_141_128)))
 (let (($x40063 (= (_ bv10 8) ?x40061)))
 (not $x40063))))
(assert
 (let ((?x40071 ((_ extract 95 88) mem_30_141_128)))
 (let (($x40064 (= (_ bv10 8) ?x40071)))
 (not $x40064))))
(assert
 (let ((?x40069 ((_ extract 103 96) mem_30_141_128)))
 (let (($x40066 (= (_ bv10 8) ?x40069)))
 (not $x40066))))
(assert
 (let ((?x40068 ((_ extract 111 104) mem_30_141_128)))
 (let (($x40070 (= (_ bv10 8) ?x40068)))
 (not $x40070))))
(assert
 (let ((?x39689 ((_ extract 119 112) mem_30_141_128)))
 (let (($x40067 (= (_ bv10 8) ?x39689)))
 (not $x40067))))
(assert
 (let ((?x40074 ((_ extract 127 120) mem_30_141_128)))
 (let (($x40078 (= (_ bv10 8) ?x40074)))
 (not $x40078))))
(assert
 (let ((?x72263 ((_ extract 2551 2544) mem_40_168_2560)))
 (let (($x74502 (= (_ bv10 8) ?x72263)))
 (not $x74502))))
(assert
 (let ((?x72977 ((_ extract 2559 2552) mem_40_168_2560)))
 (let (($x74575 (= (_ bv10 8) ?x72977)))
 (not $x74575))))
(assert
 (let ((?x74488 ((_ extract 2543 2536) mem_40_168_2560)))
 (let (($x74877 (= (_ bv10 8) ?x74488)))
 (not $x74877))))
(assert
 (let ((?x68589 ((_ extract 2535 2528) mem_40_168_2560)))
 (let (($x70454 (= (_ bv10 8) ?x68589)))
 (not $x70454))))
(assert
 (let ((?x71686 ((_ extract 2527 2520) mem_40_168_2560)))
 (let (($x71833 (= (_ bv10 8) ?x71686)))
 (not $x71833))))
(assert
 (let ((?x71013 ((_ extract 2519 2512) mem_40_168_2560)))
 (let (($x68976 (= (_ bv10 8) ?x71013)))
 (not $x68976))))
(assert
 (let ((?x72329 ((_ extract 2511 2504) mem_40_168_2560)))
 (let (($x74686 (= (_ bv10 8) ?x72329)))
 (not $x74686))))
(assert
 (let ((?x73342 ((_ extract 2503 2496) mem_40_168_2560)))
 (let (($x72083 (= (_ bv10 8) ?x73342)))
 (not $x72083))))
(assert
 (let ((?x71742 ((_ extract 2495 2488) mem_40_168_2560)))
 (let (($x74523 (= (_ bv10 8) ?x71742)))
 (not $x74523))))
(assert
 (let ((?x66083 ((_ extract 2487 2480) mem_40_168_2560)))
 (let (($x70465 (= (_ bv10 8) ?x66083)))
 (not $x70465))))
(assert
 (let ((?x68670 ((_ extract 2479 2472) mem_40_168_2560)))
 (let (($x74875 (= (_ bv10 8) ?x68670)))
 (not $x74875))))
(assert
 (let ((?x71876 ((_ extract 2471 2464) mem_40_168_2560)))
 (let (($x72607 (= (_ bv10 8) ?x71876)))
 (not $x72607))))
(assert
 (let ((?x74447 ((_ extract 2463 2456) mem_40_168_2560)))
 (let (($x73767 (= (_ bv10 8) ?x74447)))
 (not $x73767))))
(assert
 (let ((?x74611 ((_ extract 2455 2448) mem_40_168_2560)))
 (let (($x73229 (= (_ bv10 8) ?x74611)))
 (not $x73229))))
(assert
 (let ((?x75815 ((_ extract 2447 2440) mem_40_168_2560)))
 (let (($x70542 (= (_ bv10 8) ?x75815)))
 (not $x70542))))
(assert
 (let ((?x74494 ((_ extract 2439 2432) mem_40_168_2560)))
 (let (($x73009 (= (_ bv10 8) ?x74494)))
 (not $x73009))))
(assert
 (let ((?x6435 ((_ extract 839 836) mem_c0000f45_79_992)))
 (let ((?x2364 ((_ extract 831 824) mem_c0000f45_79_992)))
 (let ((?x2349 ((_ extract 823 816) mem_c0000f45_79_992)))
 (let ((?x2357 ((_ extract 815 808) mem_c0000f45_79_992)))
 (let ((?x2362 ((_ extract 807 800) mem_c0000f45_79_992)))
 (let ((?x2363 ((_ extract 799 792) mem_c0000f45_79_992)))
 (let ((?x593 (concat (concat ((_ extract 783 776) mem_c0000f45_79_992) ((_ extract 791 784) mem_c0000f45_79_992)) ?x2363)))
 (let ((?x4215 (concat (concat (concat (concat ?x593 ?x2362) ?x2357) ?x2349) ?x2364)))
 (let ((?x14202 (concat (concat ?x4215 ?x6435) (_ bv0 4))))
 (let ((?x51151 (bvadd ?x14202 (_ bv96 64))))
 (= (_ bv80 64) ?x51151))))))))))))
(assert
 (let ((?x69587 ((_ extract 2431 2424) mem_40_168_2560)))
 (let (($x68560 (= (_ bv10 8) ?x69587)))
 (let ((?x140536 (ite $x68560 (_ bv1 1) (_ bv0 1))))
 (let ((?x75064 ((_ extract 2423 2416) mem_40_168_2560)))
 (let (($x66839 (= (_ bv10 8) ?x75064)))
 (let ((?x142168 (ite $x66839 (_ bv1 1) (_ bv0 1))))
 (let ((?x74579 ((_ extract 2415 2408) mem_40_168_2560)))
 (let (($x71836 (= (_ bv10 8) ?x74579)))
 (let ((?x142829 (ite $x71836 (_ bv1 1) (_ bv0 1))))
 (let ((?x73385 ((_ extract 2407 2400) mem_40_168_2560)))
 (let (($x72770 (= (_ bv10 8) ?x73385)))
 (let ((?x142820 (ite $x72770 (_ bv1 1) (_ bv0 1))))
 (let ((?x75367 ((_ extract 2399 2392) mem_40_168_2560)))
 (let (($x69485 (= (_ bv10 8) ?x75367)))
 (let ((?x142698 (ite $x69485 (_ bv1 1) (_ bv0 1))))
 (let ((?x75435 ((_ extract 2391 2384) mem_40_168_2560)))
 (let (($x68829 (= (_ bv10 8) ?x75435)))
 (let ((?x146067 (ite $x68829 (_ bv1 1) (_ bv0 1))))
 (let ((?x69863 ((_ extract 2383 2376) mem_40_168_2560)))
 (let (($x68871 (= (_ bv10 8) ?x69863)))
 (let ((?x143272 (ite $x68871 (_ bv1 1) (_ bv0 1))))
 (let ((?x73249 ((_ extract 2375 2368) mem_40_168_2560)))
 (let (($x69173 (= (_ bv10 8) ?x73249)))
 (let ((?x142991 (ite $x69173 (_ bv1 1) (_ bv0 1))))
 (let ((?x75979 ((_ extract 2367 2360) mem_40_168_2560)))
 (let (($x68998 (= (_ bv10 8) ?x75979)))
 (let ((?x141244 (ite $x68998 (_ bv1 1) (_ bv0 1))))
 (let ((?x72517 ((_ extract 2359 2352) mem_40_168_2560)))
 (let (($x72995 (= (_ bv10 8) ?x72517)))
 (let ((?x144169 (ite $x72995 (_ bv1 1) (_ bv0 1))))
 (let ((?x72381 ((_ extract 2351 2344) mem_40_168_2560)))
 (let (($x73830 (= (_ bv10 8) ?x72381)))
 (let ((?x144020 (ite $x73830 (_ bv1 1) (_ bv0 1))))
 (let ((?x72795 ((_ extract 2343 2336) mem_40_168_2560)))
 (let (($x68433 (= (_ bv10 8) ?x72795)))
 (let ((?x139725 (ite $x68433 (_ bv1 1) (_ bv0 1))))
 (let ((?x71009 ((_ extract 2335 2328) mem_40_168_2560)))
 (let (($x72126 (= (_ bv10 8) ?x71009)))
 (let ((?x142974 (ite $x72126 (_ bv1 1) (_ bv0 1))))
 (let ((?x74588 ((_ extract 2327 2320) mem_40_168_2560)))
 (let (($x72236 (= (_ bv10 8) ?x74588)))
 (let ((?x143257 (ite $x72236 (_ bv1 1) (_ bv0 1))))
 (let ((?x73913 ((_ extract 2319 2312) mem_40_168_2560)))
 (let (($x74358 (= (_ bv10 8) ?x73913)))
 (let ((?x140479 (ite $x74358 (_ bv1 1) (_ bv0 1))))
 (let ((?x75296 ((_ extract 2311 2304) mem_40_168_2560)))
 (let (($x73788 (= (_ bv10 8) ?x75296)))
 (let ((?x142159 (ite $x73788 (_ bv1 1) (_ bv0 1))))
 (let ((?x145102 (concat (concat (concat (concat (concat ?x142159 ?x140479) ?x143257) ?x142974) ?x139725) ?x144020)))
 (let ((?x142685 (concat (concat (concat (concat (concat ?x145102 ?x144169) ?x141244) ?x142991) ?x143272) ?x146067)))
 (let ((?x143286 (concat (concat (concat (concat (concat ?x142685 ?x142698) ?x142820) ?x142829) ?x142168) ?x140536)))
 (and (distinct (_ bv0 16) ?x143286) true)))))))))))))))))))))))))))))))))))))))))))))))))))))
(minimize mem_40_168_2560)
(maximize mem_20_128_128)
(minimize mem_30_141_128)
(maximize mem_10_118_128)
(maximize mem_fffffffffffffff0_103_128)
(maximize syscall_stub_newfstatat_83_64)
(maximize mem_30_141_128)
(minimize mem_20_128_128)
(minimize mem_c0000f45_79_992)
(minimize syscall_stub_newfstatat_83_64)
(minimize mem_c0001010_98_32)
(maximize mem_0_112_128)
(minimize mem_0_112_128)
(maximize mem_40_168_2560)
(maximize mem_c0001010_98_32)
(minimize mem_10_118_128)
(minimize mem_fffffffffffffff0_103_128)
(maximize mem_c0000f45_79_992)
(check-sat)
(get-objectives)
